\ENCODING=ISO-8859-1
\Problem name: ilog.cplex

Minimize
 obj: 16 x_0_1 + 13 x_0_2 + 18 x_0_3 + 0 x_0_0 + 6 x_1_0 + 4 x_1_2 + 2 x_1_3
      + 3 x_2_0 + 4 x_2_1 + 4 x_2_3 + 8 x_3_0 + 2 x_3_1 + 4 x_3_2
Subject To
 c1:  x_1_0 + x_1_1 + x_1_2 + x_1_3  = 1
 c3:  x_2_0 + x_2_1 + x_2_2 + x_2_3  = 1
 c5:  x_3_0 + x_3_1 + x_3_2 + x_3_3  = 1
 c7:  - x_0_1 + x_1_0 + x_1_2 + x_1_3 - x_2_1 - x_3_1  = 0
 c9:  - x_0_2 - x_1_2 + x_2_0 + x_2_1 + x_2_3 - x_3_2  = 0
 c11: - x_0_3 - x_1_3 - x_2_3 + x_3_0 + x_3_1 + x_3_2  = 0
 c13: 2 x_1_0 + 2 x_1_1 + 2 x_1_2 + 2 x_1_3 + 3 x_2_0 + 3 x_2_1 + 3 x_2_2
      + 3 x_2_3 + 4 x_3_0 + 4 x_3_1 + 4 x_3_2 + 4 x_3_3 <= 50
 c15: 23 x_1_1 <= 21
 c17: 25 x_1_2 + x17 - x19 <= 19
 c19: 31 x_1_3 + x17 - x21 <= 27
 c21: 27 x_2_1 - x17 + x19 <= 20
 c23: 25 x_2_2 <= 22
 c25: 31 x_2_3 + x19 - x21 <= 24
 c27: 35 x_3_1 - x17 + x21 <= 29
 c29: 33 x_3_2 - x19 + x21 <= 25
 c31: 27 x_3_3 <= 23
 c33: x17 <= 21
 c35: x17 >= 0
 c37: x19 <= 22
 c39: x19 >= 0
 c41: x21 <= 23
 c43: x21 >= 0
Bounds
 0 <= x_0_1 <= 1
 0 <= x_0_2 <= 1
 0 <= x_0_3 <= 1
 0 <= x_0_0 <= 1
 0 <= x_1_0 <= 1
 0 <= x_1_1 <= 1
 0 <= x_1_2 <= 1
 0 <= x_1_3 <= 1
 0 <= x_2_0 <= 1
 0 <= x_2_1 <= 1
 0 <= x_2_2 <= 1
 0 <= x_2_3 <= 1
 0 <= x_3_0 <= 1
 0 <= x_3_1 <= 1
 0 <= x_3_2 <= 1
 0 <= x_3_3 <= 1
 0 <= x17 <= 100
 0 <= x19 <= 100
 0 <= x21 <= 100
Binaries
 x_0_1  x_0_2  x_0_3  x_0_0  x_1_0  x_1_1  x_1_2  x_1_3  x_2_0  x_2_1  x_2_2 
 x_2_3  x_3_0  x_3_1  x_3_2  x_3_3 
End
